--- Job gams_0064_002_32_04_0.67_05_0.50_0.90_07_problem.txt Start 02/24/21 20:05:11 35.2.0 r33388c4 WEX-WEI x86 64bit/MS Windows
--- Applying:
    C:\Users\MariaSosnovskaya\GAMS35\gmsprmNT.txt
--- GAMS Parameters defined
    Input C:\Users\MariaSosnovskaya\Downloads\WfmGams3\problems\gams_0064_002_32_04_0.67_05_0.50_0.90_07_problem.txt
    ScrDir C:\Users\MariaSosnovskaya\Downloads\WfmGams3\225l\
    SysDir C:\Users\MariaSosnovskaya\GAMS35\
Licensee: GAMS Evaluation License                        S210124/0001AB-GEN
          Sobolev Institute of Mathematics, Discrete Optimization LaDCE1098
          C:\Users\MariaSosnovskaya\GAMS35\gamslice.txt
          Evaluation license: Not for commercial or production use
GAMS 35.2.0   Copyright (C) 1987-2021 GAMS Development. All rights reserved
--- Starting compilation
--- gams_0064_002_32_04_0.67_05_0.50_0.90_07_problem.txt(22) 3 Mb
--- . gams_0064_002_32_04_0.67_05_0.50_0.90_07.inc(6600) 3 Mb
--- gams_0064_002_32_04_0.67_05_0.50_0.90_07_problem.txt(98) 3 Mb
--- Starting execution: elapsed 0:00:00.042
--- gams_0064_002_32_04_0.67_05_0.50_0.90_07_problem.txt(6621) 4 Mb
--- Generating MIP model mymodel
--- gams_0064_002_32_04_0.67_05_0.50_0.90_07_problem.txt(6677) 9 Mb
---   16,769 rows  12,289 columns  56,353 non-zeroes
---   12,288 discrete-columns
--- Executing CPLEX (Solvelink=2): elapsed 0:00:00.204

IBM ILOG CPLEX   35.2.0 r33388c4 Released Jun 02, 2021 WEI x86 64bit/MS Window

--- GAMS/Cplex licensed for continuous and discrete problems.
--- Space for names approximately 0.61 Mb
--- Use option 'names no' to turn use of names off
--- GMO memory 6.31 Mb (peak 6.40 Mb)
--- Dictionary memory 0.00 Mb
--- Cplex 20.1.0.1 link memory 0.43 Mb (peak 1.99 Mb)
--- Starting Cplex

Version identifier: 20.1.0.1 | 2021-04-07 | 3a818710c
CPXPARAM_Advance                                 0
CPXPARAM_Threads                                 1
CPXPARAM_MIP_Display                             4
CPXPARAM_TimeLimit                               3600
CPXPARAM_MIP_Tolerances_AbsMIPGap                0
Generic callback                                 0x50
Tried aggregator 2 times.
MIP Presolve eliminated 8321 rows and 866 columns.
Aggregator did 192 substitutions.
Reduced MIP has 8256 rows, 11232 columns, and 37767 nonzeros.
Reduced MIP has 11232 binaries, 0 generals, 0 SOSs, and 0 indicators.
Presolve time = 0.08 sec. (42.32 ticks)
Probing fixed 904 vars, tightened 0 bounds.
Probing changed sense of 50 constraints.
Probing time = 0.08 sec. (29.72 ticks)
Tried aggregator 16 times.
MIP Presolve eliminated 400 rows and 964 columns.
Aggregator did 400 substitutions.
Reduced MIP has 7456 rows, 9868 columns, and 33509 nonzeros.
Reduced MIP has 9868 binaries, 0 generals, 0 SOSs, and 0 indicators.
Presolve time = 0.61 sec. (318.13 ticks)
Probing time = 0.00 sec. (4.43 ticks)
Tried aggregator 1 time.
Detecting symmetries...
Reduced MIP has 7456 rows, 9868 columns, and 33509 nonzeros.
Reduced MIP has 9868 binaries, 0 generals, 0 SOSs, and 0 indicators.
Presolve time = 0.05 sec. (29.83 ticks)
Probing time = 0.01 sec. (4.43 ticks)
Clique table members: 24581.
MIP emphasis: balance optimality and feasibility.
MIP search method: dynamic search.
Parallel mode: none, using 1 thread.
Tried aggregator 1 time.
No LP presolve or aggregator reductions.
Presolve time = 0.00 sec. (4.35 ticks)
Initializing dual steep norms . . .

Iteration log . . .
Iteration:     1   Dual objective     =          8469.000000
Perturbation started.
Iteration:   101   Dual objective     =          8469.000000
Iteration:   466   Dual objective     =          8468.999870
Iteration:   833   Dual objective     =          8468.999752
Iteration:  1195   Dual objective     =          8468.999636
Iteration:  1561   Dual objective     =          8468.999520
Iteration:  1929   Dual objective     =          8468.999402
Iteration:  2304   Dual objective     =          8468.999285
Iteration:  2657   Dual objective     =          8468.999237
Iteration:  2984   Dual objective     =          8468.999200
Iteration:  3308   Dual objective     =          8468.999167
Iteration:  3618   Dual objective     =          8468.999148
Iteration:  3910   Dual objective     =          8468.999132
Iteration:  4202   Dual objective     =          8468.999118
Iteration:  4457   Dual objective     =          8468.999109
Iteration:  4690   Dual objective     =          8468.999101
Iteration:  4937   Dual objective     =          8468.999091
Iteration:  5148   Dual objective     =          8468.999084
Iteration:  5350   Dual objective     =          8468.999076
Iteration:  5487   Dual objective     =          8468.999071
Iteration:  5640   Dual objective     =          8468.999068
Iteration:  5778   Dual objective     =          8468.999065
Iteration:  5905   Dual objective     =          8468.999062
Iteration:  6031   Dual objective     =          8468.999059
Iteration:  6161   Dual objective     =          8468.999057
Iteration:  6290   Dual objective     =          8468.999054
Iteration:  6410   Dual objective     =          8468.999053
Iteration:  6531   Dual objective     =          8468.999051
Iteration:  6661   Dual objective     =          8468.999050
Iteration:  6786   Dual objective     =          8468.999049
Iteration:  6897   Dual objective     =          8468.999049
Removing perturbation.
Root relaxation solution time = 0.80 sec. (463.43 ticks)

        Nodes                                         Cuts/
   Node  Left     Objective  IInf  Best Integer    Best Bound    ItCnt     Gap

      0     0     8469.0000  1453                   8469.0000     6964         
      0     0     8469.0000   674                     Cuts: 9     7226         
      0     0     8469.0000   484                    Cuts: 91     7970         
      0     0     8469.0000   581                    Cuts: 46     8437         
*     0+    0                         8468.0000     8469.0000             0.01%
Found incumbent of value 8468.000000 after 5.55 sec. (3342.43 ticks)
*     0+    0                         8469.0000     8469.0000             0.00%
Found incumbent of value 8469.000000 after 5.57 sec. (3352.94 ticks)
      0     0        cutoff           8469.0000     8469.0000     8437    0.00%
      0     0        cutoff           8469.0000     8469.0000     8437    0.00%
Elapsed time = 5.57 sec. (3355.72 ticks, tree = 0.01 MB, solutions = 2)

Zero-half cuts applied:  55
Lift and project cuts applied:  4
Gomory fractional cuts applied:  14

Root node processing (before b&c):
  Real time             =    5.57 sec. (3356.36 ticks)
Sequential b&c:
  Real time             =    0.00 sec. (0.00 ticks)
                          ------------
Total (root+branch&cut) =    5.57 sec. (3356.36 ticks)

--- MIP status (101): integer optimal solution.
--- Cplex Time: 5.57sec (det. 3356.40 ticks)

--- Fixing integer variables and solving final LP...

Version identifier: 20.1.0.1 | 2021-04-07 | 3a818710c
CPXPARAM_Advance                                 2
CPXPARAM_Threads                                 1
CPXPARAM_MIP_Display                             4
CPXPARAM_TimeLimit                               3600
CPXPARAM_MIP_Tolerances_AbsMIPGap                0
Tried aggregator 1 time.
LP Presolve eliminated 16769 rows and 12290 columns.
All rows and columns eliminated.
Presolve time = 0.02 sec. (7.10 ticks)

--- Fixed MIP status (1): optimal.
--- Cplex Time: 0.02sec (det. 12.43 ticks)


Proven optimal solution
MIP Solution:         8469.000000    (8437 iterations, 0 nodes)
Final Solve:          8469.000000    (0 iterations)

Best possible:        8469.000000
Absolute gap:            0.000000
Relative gap:            0.000000

--- Reading solution for model mymodel
--- Executing after solve: elapsed 0:00:05.964
--- gams_0064_002_32_04_0.67_05_0.50_0.90_07_problem.txt(6678) 9 Mb--- gams_0064_002_32_04_0.67_05_0.50_0.90_07_problem.txt(6698) 9 Mb
--- Putfile results C:\Users\MariaSosnovskaya\Downloads\WfmGams3\problems\gams_0064_002_32_04_0.67_05_0.50_0.90_07_results.txt
*** Status: Normal completion
--- Job gams_0064_002_32_04_0.67_05_0.50_0.90_07_problem.txt Stop 02/24/21 20:05:17 elapsed 0:00:05.985
